This is Ipopt version 3.14.16, running with linear solver MUMPS 5.7.3.

Number of nonzeros in equality constraint Jacobian...:        0
Number of nonzeros in inequality constraint Jacobian.:      169
Number of nonzeros in Lagrangian Hessian.............:        0

Total number of variables............................:       13
                     variables with only lower bounds:        0
                variables with lower and upper bounds:       13
                     variables with only upper bounds:        0
Total number of equality constraints.................:        0
Total number of inequality constraints...............:       13
        inequality constraints with only lower bounds:        0
   inequality constraints with lower and upper bounds:        0
        inequality constraints with only upper bounds:       13

iter    objective    inf_pr   inf_du lg(mu)  ||d||  lg(rg) alpha_du alpha_pr  ls
   0  2.2591353e-02 4.67e-02 9.98e-01   0.0 0.00e+00    -  0.00e+00 0.00e+00   0
   1  2.2898447e-02 0.00e+00 1.28e-02  -6.2 5.24e-03    -  9.87e-01 1.00e+00h  1
   2  2.1832541e-02 0.00e+00 2.09e-02  -8.1 3.18e-01    -  9.18e-01 1.00e+00h  1
   3  1.9762299e-02 0.00e+00 6.55e-03  -4.7 7.72e-01    -  1.00e+00 1.00e+00h  1
   4  1.8267606e-02 0.00e+00 1.35e-03  -6.1 5.25e-01    -  1.00e+00 1.00e+00h  1
   5  1.8157265e-02 0.00e+00 1.74e-04  -7.4 4.08e-02    -  1.00e+00 9.99e-01h  1

Number of Iterations....: 5

                                   (scaled)                 (unscaled)
Objective...............:   1.8157265098299565e-02    1.8157265098299565e-02
Dual infeasibility......:   1.7365985454113132e-04    1.7365985454113132e-04
Constraint violation....:   0.0000000000000000e+00    0.0000000000000000e+00
Variable bound violation:   0.0000000000000000e+00    0.0000000000000000e+00
Complementarity.........:   1.2204232950898382e-07    1.2204232950898382e-07
Overall NLP error.......:   1.7365985454113132e-04    1.7365985454113132e-04


Number of objective function evaluations             = 6
Number of objective gradient evaluations             = 6
Number of equality constraint evaluations            = 0
Number of inequality constraint evaluations          = 6
Number of equality constraint Jacobian evaluations   = 0
Number of inequality constraint Jacobian evaluations = 6
Number of Lagrangian Hessian evaluations             = 0
Total seconds in IPOPT                               = 1.185

EXIT: Optimal Solution Found.
